Route #1: 1 1 28 17 14 29 36 30 15 5 1 
Route #2: 1 32 10 16 22 31 1 
Route #3: 1 23 40 20 7 8 13 19 1 
Route #4: 1 39 4 24 2 35 25 1 
Route #5: 1 11 34 33 6 9 38 27 1 
Route #6: 1 37 3 18 21 26 12 1 

Cost 1002.31
Time 0.2608


 * Another infos *

 Iterations: 41 Time: 0.2608 sec - 0.0043 min - 0.0001 horas
0.0000 h 0.0043 min
Problem dimension: 41
